p cnf 337 1523
14 0
15 0
-16 0
-17 0
-18 0
-19 0
20 0
-21 0
-22 0
23 0
24 0
25 0
-26 0
27 0
-28 0
29 0
30 0
-31 0
-32 0
-33 0
-34 0
35 0
36 0
-37 0
-38 0
39 0
-40 0
41 0
-42 0
-43 0
-44 0
-45 0
46 0
47 0
48 0
49 0
-50 0
-51 0
52 0
53 0
54 0
55 0
56 0
-57 0
58 0
59 0
-60 0
-61 0
62 0
63 0
64 0
65 0
66 0
67 0
68 0
-69 0
-70 0
-71 0
72 0
-73 0
-74 0
75 0
76 0
-77 0
-78 0
79 0
80 0
-81 0
-82 0
-83 0
84 0
-85 0
86 0
-87 1 14 0
-87 -1 14 0
-87 1 -14 0
87 -1 -14 0
-88 1 15 0
-88 -1 15 0
-88 1 -15 0
88 -1 -15 0
-89 1 16 0
-89 -1 16 0
-89 1 -16 0
89 -1 -16 0
-90 2 17 0
-90 -2 17 0
-90 2 -17 0
90 -2 -17 0
-91 2 18 0
-91 -2 18 0
-91 2 -18 0
91 -2 -18 0
-92 2 19 0
-92 -2 19 0
-92 2 -19 0
92 -2 -19 0
-93 2 20 0
-93 -2 20 0
-93 2 -20 0
93 -2 -20 0
-94 3 21 0
-94 -3 21 0
-94 3 -21 0
94 -3 -21 0
-95 3 22 0
-95 -3 22 0
-95 3 -22 0
95 -3 -22 0
-96 3 23 0
-96 -3 23 0
-96 3 -23 0
96 -3 -23 0
-97 3 24 0
-97 -3 24 0
-97 3 -24 0
97 -3 -24 0
-98 4 25 0
-98 -4 25 0
-98 4 -25 0
98 -4 -25 0
-99 4 26 0
-99 -4 26 0
-99 4 -26 0
99 -4 -26 0
-100 4 27 0
-100 -4 27 0
-100 4 -27 0
100 -4 -27 0
-101 4 28 0
-101 -4 28 0
-101 4 -28 0
101 -4 -28 0
-102 4 29 0
-102 -4 29 0
-102 4 -29 0
102 -4 -29 0
-103 5 30 0
-103 -5 30 0
-103 5 -30 0
103 -5 -30 0
-104 5 31 0
-104 -5 31 0
-104 5 -31 0
104 -5 -31 0
-105 5 32 0
-105 -5 32 0
-105 5 -32 0
105 -5 -32 0
-106 5 33 0
-106 -5 33 0
-106 5 -33 0
106 -5 -33 0
-107 5 34 0
-107 -5 34 0
-107 5 -34 0
107 -5 -34 0
-108 5 35 0
-108 -5 35 0
-108 5 -35 0
108 -5 -35 0
-109 6 36 0
-109 -6 36 0
-109 6 -36 0
109 -6 -36 0
-110 6 37 0
-110 -6 37 0
-110 6 -37 0
110 -6 -37 0
-111 6 38 0
-111 -6 38 0
-111 6 -38 0
111 -6 -38 0
-112 6 39 0
-112 -6 39 0
-112 6 -39 0
112 -6 -39 0
-113 6 40 0
-113 -6 40 0
-113 6 -40 0
113 -6 -40 0
-114 6 41 0
-114 -6 41 0
-114 6 -41 0
114 -6 -41 0
-115 7 42 0
-115 -7 42 0
-115 7 -42 0
115 -7 -42 0
-116 7 43 0
-116 -7 43 0
-116 7 -43 0
116 -7 -43 0
-117 7 44 0
-117 -7 44 0
-117 7 -44 0
117 -7 -44 0
-118 7 45 0
-118 -7 45 0
-118 7 -45 0
118 -7 -45 0
-119 7 46 0
-119 -7 46 0
-119 7 -46 0
119 -7 -46 0
-120 7 47 0
-120 -7 47 0
-120 7 -47 0
120 -7 -47 0
-121 8 48 0
-121 -8 48 0
-121 8 -48 0
121 -8 -48 0
-122 8 49 0
-122 -8 49 0
-122 8 -49 0
122 -8 -49 0
-123 8 50 0
-123 -8 50 0
-123 8 -50 0
123 -8 -50 0
-124 8 51 0
-124 -8 51 0
-124 8 -51 0
124 -8 -51 0
-125 8 52 0
-125 -8 52 0
-125 8 -52 0
125 -8 -52 0
-126 8 53 0
-126 -8 53 0
-126 8 -53 0
126 -8 -53 0
-127 9 54 0
-127 -9 54 0
-127 9 -54 0
127 -9 -54 0
-128 9 55 0
-128 -9 55 0
-128 9 -55 0
128 -9 -55 0
-129 9 56 0
-129 -9 56 0
-129 9 -56 0
129 -9 -56 0
-130 9 57 0
-130 -9 57 0
-130 9 -57 0
130 -9 -57 0
-131 9 58 0
-131 -9 58 0
-131 9 -58 0
131 -9 -58 0
-132 9 59 0
-132 -9 59 0
-132 9 -59 0
132 -9 -59 0
-133 10 60 0
-133 -10 60 0
-133 10 -60 0
133 -10 -60 0
-134 10 61 0
-134 -10 61 0
-134 10 -61 0
134 -10 -61 0
-135 10 62 0
-135 -10 62 0
-135 10 -62 0
135 -10 -62 0
-136 10 63 0
-136 -10 63 0
-136 10 -63 0
136 -10 -63 0
-137 10 64 0
-137 -10 64 0
-137 10 -64 0
137 -10 -64 0
-138 10 65 0
-138 -10 65 0
-138 10 -65 0
138 -10 -65 0
-139 11 66 0
-139 -11 66 0
-139 11 -66 0
139 -11 -66 0
-140 11 67 0
-140 -11 67 0
-140 11 -67 0
140 -11 -67 0
-141 11 68 0
-141 -11 68 0
-141 11 -68 0
141 -11 -68 0
-142 11 69 0
-142 -11 69 0
-142 11 -69 0
142 -11 -69 0
-143 11 70 0
-143 -11 70 0
-143 11 -70 0
143 -11 -70 0
-144 11 71 0
-144 -11 71 0
-144 11 -71 0
144 -11 -71 0
-145 11 72 0
-145 -11 72 0
-145 11 -72 0
145 -11 -72 0
-146 12 73 0
-146 -12 73 0
-146 12 -73 0
146 -12 -73 0
-147 12 74 0
-147 -12 74 0
-147 12 -74 0
147 -12 -74 0
-148 12 75 0
-148 -12 75 0
-148 12 -75 0
148 -12 -75 0
-149 12 76 0
-149 -12 76 0
-149 12 -76 0
149 -12 -76 0
-150 12 77 0
-150 -12 77 0
-150 12 -77 0
150 -12 -77 0
-151 12 78 0
-151 -12 78 0
-151 12 -78 0
151 -12 -78 0
-152 12 79 0
-152 -12 79 0
-152 12 -79 0
152 -12 -79 0
-153 13 80 0
-153 -13 80 0
-153 13 -80 0
153 -13 -80 0
-154 13 81 0
-154 -13 81 0
-154 13 -81 0
154 -13 -81 0
-155 13 82 0
-155 -13 82 0
-155 13 -82 0
155 -13 -82 0
-156 13 83 0
-156 -13 83 0
-156 13 -83 0
156 -13 -83 0
-157 13 84 0
-157 -13 84 0
-157 13 -84 0
157 -13 -84 0
-158 13 85 0
-158 -13 85 0
-158 13 -85 0
158 -13 -85 0
-159 13 86 0
-159 -13 86 0
-159 13 -86 0
159 -13 -86 0
-160 87 0
160 -87 0
-161 88 0
161 -88 0
-162 89 0
162 -89 0
-163 160 90 0
163 -160 90 0
163 160 -90 0
-163 -160 -90 0
-167 160 90 0
-167 -160 90 0
-167 160 -90 0
167 -160 -90 0
-164 167 161 91 0
164 -167 161 91 0
164 167 -161 91 0
-164 -167 -161 91 0
164 167 161 -91 0
-164 -167 161 -91 0
-164 167 -161 -91 0
164 -167 -161 -91 0
-168 161 91 167 0
-168 -161 91 167 0
-168 161 -91 167 0
168 -161 -91 167 0
-168 161 91 -167 0
168 -161 91 -167 0
168 161 -91 -167 0
168 -161 -91 -167 0
-165 168 162 92 0
165 -168 162 92 0
165 168 -162 92 0
-165 -168 -162 92 0
165 168 162 -92 0
-165 -168 162 -92 0
-165 168 -162 -92 0
165 -168 -162 -92 0
-169 162 92 168 0
-169 -162 92 168 0
-169 162 -92 168 0
169 -162 -92 168 0
-169 162 92 -168 0
169 -162 92 -168 0
169 162 -92 -168 0
169 -162 -92 -168 0
-166 169 0
166 -169 0
-170 163 94 0
170 -163 94 0
170 163 -94 0
-170 -163 -94 0
-175 163 94 0
-175 -163 94 0
-175 163 -94 0
175 -163 -94 0
-171 175 164 95 0
171 -175 164 95 0
171 175 -164 95 0
-171 -175 -164 95 0
171 175 164 -95 0
-171 -175 164 -95 0
-171 175 -164 -95 0
171 -175 -164 -95 0
-176 164 95 175 0
-176 -164 95 175 0
-176 164 -95 175 0
176 -164 -95 175 0
-176 164 95 -175 0
176 -164 95 -175 0
176 164 -95 -175 0
176 -164 -95 -175 0
-172 176 165 96 0
172 -176 165 96 0
172 176 -165 96 0
-172 -176 -165 96 0
172 176 165 -96 0
-172 -176 165 -96 0
-172 176 -165 -96 0
172 -176 -165 -96 0
-177 165 96 176 0
-177 -165 96 176 0
-177 165 -96 176 0
177 -165 -96 176 0
-177 165 96 -176 0
177 -165 96 -176 0
177 165 -96 -176 0
177 -165 -96 -176 0
-173 177 166 97 0
173 -177 166 97 0
173 177 -166 97 0
-173 -177 -166 97 0
173 177 166 -97 0
-173 -177 166 -97 0
-173 177 -166 -97 0
173 -177 -166 -97 0
-178 166 97 177 0
-178 -166 97 177 0
-178 166 -97 177 0
178 -166 -97 177 0
-178 166 97 -177 0
178 -166 97 -177 0
178 166 -97 -177 0
178 -166 -97 -177 0
-174 178 0
174 -178 0
-179 170 98 0
179 -170 98 0
179 170 -98 0
-179 -170 -98 0
-185 170 98 0
-185 -170 98 0
-185 170 -98 0
185 -170 -98 0
-180 185 171 99 0
180 -185 171 99 0
180 185 -171 99 0
-180 -185 -171 99 0
180 185 171 -99 0
-180 -185 171 -99 0
-180 185 -171 -99 0
180 -185 -171 -99 0
-186 171 99 185 0
-186 -171 99 185 0
-186 171 -99 185 0
186 -171 -99 185 0
-186 171 99 -185 0
186 -171 99 -185 0
186 171 -99 -185 0
186 -171 -99 -185 0
-181 186 172 100 0
181 -186 172 100 0
181 186 -172 100 0
-181 -186 -172 100 0
181 186 172 -100 0
-181 -186 172 -100 0
-181 186 -172 -100 0
181 -186 -172 -100 0
-187 172 100 186 0
-187 -172 100 186 0
-187 172 -100 186 0
187 -172 -100 186 0
-187 172 100 -186 0
187 -172 100 -186 0
187 172 -100 -186 0
187 -172 -100 -186 0
-182 187 173 101 0
182 -187 173 101 0
182 187 -173 101 0
-182 -187 -173 101 0
182 187 173 -101 0
-182 -187 173 -101 0
-182 187 -173 -101 0
182 -187 -173 -101 0
-188 173 101 187 0
-188 -173 101 187 0
-188 173 -101 187 0
188 -173 -101 187 0
-188 173 101 -187 0
188 -173 101 -187 0
188 173 -101 -187 0
188 -173 -101 -187 0
-183 188 174 102 0
183 -188 174 102 0
183 188 -174 102 0
-183 -188 -174 102 0
183 188 174 -102 0
-183 -188 174 -102 0
-183 188 -174 -102 0
183 -188 -174 -102 0
-189 174 102 188 0
-189 -174 102 188 0
-189 174 -102 188 0
189 -174 -102 188 0
-189 174 102 -188 0
189 -174 102 -188 0
189 174 -102 -188 0
189 -174 -102 -188 0
-184 189 0
184 -189 0
-190 179 103 0
190 -179 103 0
190 179 -103 0
-190 -179 -103 0
-197 179 103 0
-197 -179 103 0
-197 179 -103 0
197 -179 -103 0
-191 197 180 104 0
191 -197 180 104 0
191 197 -180 104 0
-191 -197 -180 104 0
191 197 180 -104 0
-191 -197 180 -104 0
-191 197 -180 -104 0
191 -197 -180 -104 0
-198 180 104 197 0
-198 -180 104 197 0
-198 180 -104 197 0
198 -180 -104 197 0
-198 180 104 -197 0
198 -180 104 -197 0
198 180 -104 -197 0
198 -180 -104 -197 0
-192 198 181 105 0
192 -198 181 105 0
192 198 -181 105 0
-192 -198 -181 105 0
192 198 181 -105 0
-192 -198 181 -105 0
-192 198 -181 -105 0
192 -198 -181 -105 0
-199 181 105 198 0
-199 -181 105 198 0
-199 181 -105 198 0
199 -181 -105 198 0
-199 181 105 -198 0
199 -181 105 -198 0
199 181 -105 -198 0
199 -181 -105 -198 0
-193 199 182 106 0
193 -199 182 106 0
193 199 -182 106 0
-193 -199 -182 106 0
193 199 182 -106 0
-193 -199 182 -106 0
-193 199 -182 -106 0
193 -199 -182 -106 0
-200 182 106 199 0
-200 -182 106 199 0
-200 182 -106 199 0
200 -182 -106 199 0
-200 182 106 -199 0
200 -182 106 -199 0
200 182 -106 -199 0
200 -182 -106 -199 0
-194 200 183 107 0
194 -200 183 107 0
194 200 -183 107 0
-194 -200 -183 107 0
194 200 183 -107 0
-194 -200 183 -107 0
-194 200 -183 -107 0
194 -200 -183 -107 0
-201 183 107 200 0
-201 -183 107 200 0
-201 183 -107 200 0
201 -183 -107 200 0
-201 183 107 -200 0
201 -183 107 -200 0
201 183 -107 -200 0
201 -183 -107 -200 0
-195 201 184 108 0
195 -201 184 108 0
195 201 -184 108 0
-195 -201 -184 108 0
195 201 184 -108 0
-195 -201 184 -108 0
-195 201 -184 -108 0
195 -201 -184 -108 0
-202 184 108 201 0
-202 -184 108 201 0
-202 184 -108 201 0
202 -184 -108 201 0
-202 184 108 -201 0
202 -184 108 -201 0
202 184 -108 -201 0
202 -184 -108 -201 0
-196 202 0
196 -202 0
-203 190 109 0
203 -190 109 0
203 190 -109 0
-203 -190 -109 0
-210 190 109 0
-210 -190 109 0
-210 190 -109 0
210 -190 -109 0
-204 210 191 110 0
204 -210 191 110 0
204 210 -191 110 0
-204 -210 -191 110 0
204 210 191 -110 0
-204 -210 191 -110 0
-204 210 -191 -110 0
204 -210 -191 -110 0
-211 191 110 210 0
-211 -191 110 210 0
-211 191 -110 210 0
211 -191 -110 210 0
-211 191 110 -210 0
211 -191 110 -210 0
211 191 -110 -210 0
211 -191 -110 -210 0
-205 211 192 111 0
205 -211 192 111 0
205 211 -192 111 0
-205 -211 -192 111 0
205 211 192 -111 0
-205 -211 192 -111 0
-205 211 -192 -111 0
205 -211 -192 -111 0
-212 192 111 211 0
-212 -192 111 211 0
-212 192 -111 211 0
212 -192 -111 211 0
-212 192 111 -211 0
212 -192 111 -211 0
212 192 -111 -211 0
212 -192 -111 -211 0
-206 212 193 112 0
206 -212 193 112 0
206 212 -193 112 0
-206 -212 -193 112 0
206 212 193 -112 0
-206 -212 193 -112 0
-206 212 -193 -112 0
206 -212 -193 -112 0
-213 193 112 212 0
-213 -193 112 212 0
-213 193 -112 212 0
213 -193 -112 212 0
-213 193 112 -212 0
213 -193 112 -212 0
213 193 -112 -212 0
213 -193 -112 -212 0
-207 213 194 113 0
207 -213 194 113 0
207 213 -194 113 0
-207 -213 -194 113 0
207 213 194 -113 0
-207 -213 194 -113 0
-207 213 -194 -113 0
207 -213 -194 -113 0
-214 194 113 213 0
-214 -194 113 213 0
-214 194 -113 213 0
214 -194 -113 213 0
-214 194 113 -213 0
214 -194 113 -213 0
214 194 -113 -213 0
214 -194 -113 -213 0
-208 214 195 114 0
208 -214 195 114 0
208 214 -195 114 0
-208 -214 -195 114 0
208 214 195 -114 0
-208 -214 195 -114 0
-208 214 -195 -114 0
208 -214 -195 -114 0
-215 195 114 214 0
-215 -195 114 214 0
-215 195 -114 214 0
215 -195 -114 214 0
-215 195 114 -214 0
215 -195 114 -214 0
215 195 -114 -214 0
215 -195 -114 -214 0
-209 215 196 0
209 -215 196 0
209 215 -196 0
-209 -215 -196 0
-216 215 196 0
-216 -215 196 0
-216 215 -196 0
216 -215 -196 0
-217 203 115 0
217 -203 115 0
217 203 -115 0
-217 -203 -115 0
-225 203 115 0
-225 -203 115 0
-225 203 -115 0
225 -203 -115 0
-218 225 204 116 0
218 -225 204 116 0
218 225 -204 116 0
-218 -225 -204 116 0
218 225 204 -116 0
-218 -225 204 -116 0
-218 225 -204 -116 0
218 -225 -204 -116 0
-226 204 116 225 0
-226 -204 116 225 0
-226 204 -116 225 0
226 -204 -116 225 0
-226 204 116 -225 0
226 -204 116 -225 0
226 204 -116 -225 0
226 -204 -116 -225 0
-219 226 205 117 0
219 -226 205 117 0
219 226 -205 117 0
-219 -226 -205 117 0
219 226 205 -117 0
-219 -226 205 -117 0
-219 226 -205 -117 0
219 -226 -205 -117 0
-227 205 117 226 0
-227 -205 117 226 0
-227 205 -117 226 0
227 -205 -117 226 0
-227 205 117 -226 0
227 -205 117 -226 0
227 205 -117 -226 0
227 -205 -117 -226 0
-220 227 206 118 0
220 -227 206 118 0
220 227 -206 118 0
-220 -227 -206 118 0
220 227 206 -118 0
-220 -227 206 -118 0
-220 227 -206 -118 0
220 -227 -206 -118 0
-228 206 118 227 0
-228 -206 118 227 0
-228 206 -118 227 0
228 -206 -118 227 0
-228 206 118 -227 0
228 -206 118 -227 0
228 206 -118 -227 0
228 -206 -118 -227 0
-221 228 207 119 0
221 -228 207 119 0
221 228 -207 119 0
-221 -228 -207 119 0
221 228 207 -119 0
-221 -228 207 -119 0
-221 228 -207 -119 0
221 -228 -207 -119 0
-229 207 119 228 0
-229 -207 119 228 0
-229 207 -119 228 0
229 -207 -119 228 0
-229 207 119 -228 0
229 -207 119 -228 0
229 207 -119 -228 0
229 -207 -119 -228 0
-222 229 208 120 0
222 -229 208 120 0
222 229 -208 120 0
-222 -229 -208 120 0
222 229 208 -120 0
-222 -229 208 -120 0
-222 229 -208 -120 0
222 -229 -208 -120 0
-230 208 120 229 0
-230 -208 120 229 0
-230 208 -120 229 0
230 -208 -120 229 0
-230 208 120 -229 0
230 -208 120 -229 0
230 208 -120 -229 0
230 -208 -120 -229 0
-223 230 209 0
223 -230 209 0
223 230 -209 0
-223 -230 -209 0
-231 230 209 0
-231 -230 209 0
-231 230 -209 0
231 -230 -209 0
-224 231 0
224 -231 0
-232 217 121 0
232 -217 121 0
232 217 -121 0
-232 -217 -121 0
-240 217 121 0
-240 -217 121 0
-240 217 -121 0
240 -217 -121 0
-233 240 218 122 0
233 -240 218 122 0
233 240 -218 122 0
-233 -240 -218 122 0
233 240 218 -122 0
-233 -240 218 -122 0
-233 240 -218 -122 0
233 -240 -218 -122 0
-241 218 122 240 0
-241 -218 122 240 0
-241 218 -122 240 0
241 -218 -122 240 0
-241 218 122 -240 0
241 -218 122 -240 0
241 218 -122 -240 0
241 -218 -122 -240 0
-234 241 219 123 0
234 -241 219 123 0
234 241 -219 123 0
-234 -241 -219 123 0
234 241 219 -123 0
-234 -241 219 -123 0
-234 241 -219 -123 0
234 -241 -219 -123 0
-242 219 123 241 0
-242 -219 123 241 0
-242 219 -123 241 0
242 -219 -123 241 0
-242 219 123 -241 0
242 -219 123 -241 0
242 219 -123 -241 0
242 -219 -123 -241 0
-235 242 220 124 0
235 -242 220 124 0
235 242 -220 124 0
-235 -242 -220 124 0
235 242 220 -124 0
-235 -242 220 -124 0
-235 242 -220 -124 0
235 -242 -220 -124 0
-243 220 124 242 0
-243 -220 124 242 0
-243 220 -124 242 0
243 -220 -124 242 0
-243 220 124 -242 0
243 -220 124 -242 0
243 220 -124 -242 0
243 -220 -124 -242 0
-236 243 221 125 0
236 -243 221 125 0
236 243 -221 125 0
-236 -243 -221 125 0
236 243 221 -125 0
-236 -243 221 -125 0
-236 243 -221 -125 0
236 -243 -221 -125 0
-244 221 125 243 0
-244 -221 125 243 0
-244 221 -125 243 0
244 -221 -125 243 0
-244 221 125 -243 0
244 -221 125 -243 0
244 221 -125 -243 0
244 -221 -125 -243 0
-237 244 222 126 0
237 -244 222 126 0
237 244 -222 126 0
-237 -244 -222 126 0
237 244 222 -126 0
-237 -244 222 -126 0
-237 244 -222 -126 0
237 -244 -222 -126 0
-245 222 126 244 0
-245 -222 126 244 0
-245 222 -126 244 0
245 -222 -126 244 0
-245 222 126 -244 0
245 -222 126 -244 0
245 222 -126 -244 0
245 -222 -126 -244 0
-238 245 223 0
238 -245 223 0
238 245 -223 0
-238 -245 -223 0
-246 245 223 0
-246 -245 223 0
-246 245 -223 0
246 -245 -223 0
-239 246 224 0
239 -246 224 0
239 246 -224 0
-239 -246 -224 0
-247 246 224 0
-247 -246 224 0
-247 246 -224 0
247 -246 -224 0
-248 232 127 0
248 -232 127 0
248 232 -127 0
-248 -232 -127 0
-257 232 127 0
-257 -232 127 0
-257 232 -127 0
257 -232 -127 0
-249 257 233 128 0
249 -257 233 128 0
249 257 -233 128 0
-249 -257 -233 128 0
249 257 233 -128 0
-249 -257 233 -128 0
-249 257 -233 -128 0
249 -257 -233 -128 0
-258 233 128 257 0
-258 -233 128 257 0
-258 233 -128 257 0
258 -233 -128 257 0
-258 233 128 -257 0
258 -233 128 -257 0
258 233 -128 -257 0
258 -233 -128 -257 0
-250 258 234 129 0
250 -258 234 129 0
250 258 -234 129 0
-250 -258 -234 129 0
250 258 234 -129 0
-250 -258 234 -129 0
-250 258 -234 -129 0
250 -258 -234 -129 0
-259 234 129 258 0
-259 -234 129 258 0
-259 234 -129 258 0
259 -234 -129 258 0
-259 234 129 -258 0
259 -234 129 -258 0
259 234 -129 -258 0
259 -234 -129 -258 0
-251 259 235 130 0
251 -259 235 130 0
251 259 -235 130 0
-251 -259 -235 130 0
251 259 235 -130 0
-251 -259 235 -130 0
-251 259 -235 -130 0
251 -259 -235 -130 0
-260 235 130 259 0
-260 -235 130 259 0
-260 235 -130 259 0
260 -235 -130 259 0
-260 235 130 -259 0
260 -235 130 -259 0
260 235 -130 -259 0
260 -235 -130 -259 0
-252 260 236 131 0
252 -260 236 131 0
252 260 -236 131 0
-252 -260 -236 131 0
252 260 236 -131 0
-252 -260 236 -131 0
-252 260 -236 -131 0
252 -260 -236 -131 0
-261 236 131 260 0
-261 -236 131 260 0
-261 236 -131 260 0
261 -236 -131 260 0
-261 236 131 -260 0
261 -236 131 -260 0
261 236 -131 -260 0
261 -236 -131 -260 0
-253 261 237 132 0
253 -261 237 132 0
253 261 -237 132 0
-253 -261 -237 132 0
253 261 237 -132 0
-253 -261 237 -132 0
-253 261 -237 -132 0
253 -261 -237 -132 0
-262 237 132 261 0
-262 -237 132 261 0
-262 237 -132 261 0
262 -237 -132 261 0
-262 237 132 -261 0
262 -237 132 -261 0
262 237 -132 -261 0
262 -237 -132 -261 0
-254 262 238 0
254 -262 238 0
254 262 -238 0
-254 -262 -238 0
-263 262 238 0
-263 -262 238 0
-263 262 -238 0
263 -262 -238 0
-255 263 239 0
255 -263 239 0
255 263 -239 0
-255 -263 -239 0
-264 263 239 0
-264 -263 239 0
-264 263 -239 0
264 -263 -239 0
-256 264 0
256 -264 0
-265 248 133 0
265 -248 133 0
265 248 -133 0
-265 -248 -133 0
-274 248 133 0
-274 -248 133 0
-274 248 -133 0
274 -248 -133 0
-266 274 249 134 0
266 -274 249 134 0
266 274 -249 134 0
-266 -274 -249 134 0
266 274 249 -134 0
-266 -274 249 -134 0
-266 274 -249 -134 0
266 -274 -249 -134 0
-275 249 134 274 0
-275 -249 134 274 0
-275 249 -134 274 0
275 -249 -134 274 0
-275 249 134 -274 0
275 -249 134 -274 0
275 249 -134 -274 0
275 -249 -134 -274 0
-267 275 250 135 0
267 -275 250 135 0
267 275 -250 135 0
-267 -275 -250 135 0
267 275 250 -135 0
-267 -275 250 -135 0
-267 275 -250 -135 0
267 -275 -250 -135 0
-276 250 135 275 0
-276 -250 135 275 0
-276 250 -135 275 0
276 -250 -135 275 0
-276 250 135 -275 0
276 -250 135 -275 0
276 250 -135 -275 0
276 -250 -135 -275 0
-268 276 251 136 0
268 -276 251 136 0
268 276 -251 136 0
-268 -276 -251 136 0
268 276 251 -136 0
-268 -276 251 -136 0
-268 276 -251 -136 0
268 -276 -251 -136 0
-277 251 136 276 0
-277 -251 136 276 0
-277 251 -136 276 0
277 -251 -136 276 0
-277 251 136 -276 0
277 -251 136 -276 0
277 251 -136 -276 0
277 -251 -136 -276 0
-269 277 252 137 0
269 -277 252 137 0
269 277 -252 137 0
-269 -277 -252 137 0
269 277 252 -137 0
-269 -277 252 -137 0
-269 277 -252 -137 0
269 -277 -252 -137 0
-278 252 137 277 0
-278 -252 137 277 0
-278 252 -137 277 0
278 -252 -137 277 0
-278 252 137 -277 0
278 -252 137 -277 0
278 252 -137 -277 0
278 -252 -137 -277 0
-270 278 253 138 0
270 -278 253 138 0
270 278 -253 138 0
-270 -278 -253 138 0
270 278 253 -138 0
-270 -278 253 -138 0
-270 278 -253 -138 0
270 -278 -253 -138 0
-279 253 138 278 0
-279 -253 138 278 0
-279 253 -138 278 0
279 -253 -138 278 0
-279 253 138 -278 0
279 -253 138 -278 0
279 253 -138 -278 0
279 -253 -138 -278 0
-271 279 254 0
271 -279 254 0
271 279 -254 0
-271 -279 -254 0
-280 279 254 0
-280 -279 254 0
-280 279 -254 0
280 -279 -254 0
-272 280 255 0
272 -280 255 0
272 280 -255 0
-272 -280 -255 0
-281 280 255 0
-281 -280 255 0
-281 280 -255 0
281 -280 -255 0
-273 281 256 0
273 -281 256 0
273 281 -256 0
-273 -281 -256 0
-282 281 256 0
-282 -281 256 0
-282 281 -256 0
282 -281 -256 0
-283 265 139 0
283 -265 139 0
283 265 -139 0
-283 -265 -139 0
-292 265 139 0
-292 -265 139 0
-292 265 -139 0
292 -265 -139 0
-284 292 266 140 0
284 -292 266 140 0
284 292 -266 140 0
-284 -292 -266 140 0
284 292 266 -140 0
-284 -292 266 -140 0
-284 292 -266 -140 0
284 -292 -266 -140 0
-293 266 140 292 0
-293 -266 140 292 0
-293 266 -140 292 0
293 -266 -140 292 0
-293 266 140 -292 0
293 -266 140 -292 0
293 266 -140 -292 0
293 -266 -140 -292 0
-285 293 267 141 0
285 -293 267 141 0
285 293 -267 141 0
-285 -293 -267 141 0
285 293 267 -141 0
-285 -293 267 -141 0
-285 293 -267 -141 0
285 -293 -267 -141 0
-294 267 141 293 0
-294 -267 141 293 0
-294 267 -141 293 0
294 -267 -141 293 0
-294 267 141 -293 0
294 -267 141 -293 0
294 267 -141 -293 0
294 -267 -141 -293 0
-286 294 268 142 0
286 -294 268 142 0
286 294 -268 142 0
-286 -294 -268 142 0
286 294 268 -142 0
-286 -294 268 -142 0
-286 294 -268 -142 0
286 -294 -268 -142 0
-295 268 142 294 0
-295 -268 142 294 0
-295 268 -142 294 0
295 -268 -142 294 0
-295 268 142 -294 0
295 -268 142 -294 0
295 268 -142 -294 0
295 -268 -142 -294 0
-287 295 269 143 0
287 -295 269 143 0
287 295 -269 143 0
-287 -295 -269 143 0
287 295 269 -143 0
-287 -295 269 -143 0
-287 295 -269 -143 0
287 -295 -269 -143 0
-296 269 143 295 0
-296 -269 143 295 0
-296 269 -143 295 0
296 -269 -143 295 0
-296 269 143 -295 0
296 -269 143 -295 0
296 269 -143 -295 0
296 -269 -143 -295 0
-288 296 270 144 0
288 -296 270 144 0
288 296 -270 144 0
-288 -296 -270 144 0
288 296 270 -144 0
-288 -296 270 -144 0
-288 296 -270 -144 0
288 -296 -270 -144 0
-297 270 144 296 0
-297 -270 144 296 0
-297 270 -144 296 0
297 -270 -144 296 0
-297 270 144 -296 0
297 -270 144 -296 0
297 270 -144 -296 0
297 -270 -144 -296 0
-289 297 271 145 0
289 -297 271 145 0
289 297 -271 145 0
-289 -297 -271 145 0
289 297 271 -145 0
-289 -297 271 -145 0
-289 297 -271 -145 0
289 -297 -271 -145 0
-298 271 145 297 0
-298 -271 145 297 0
-298 271 -145 297 0
298 -271 -145 297 0
-298 271 145 -297 0
298 -271 145 -297 0
298 271 -145 -297 0
298 -271 -145 -297 0
-290 298 272 0
290 -298 272 0
290 298 -272 0
-290 -298 -272 0
-299 298 272 0
-299 -298 272 0
-299 298 -272 0
299 -298 -272 0
-291 299 273 0
291 -299 273 0
291 299 -273 0
-291 -299 -273 0
-300 299 273 0
-300 -299 273 0
-300 299 -273 0
300 -299 -273 0
-301 283 146 0
301 -283 146 0
301 283 -146 0
-301 -283 -146 0
-310 283 146 0
-310 -283 146 0
-310 283 -146 0
310 -283 -146 0
-302 310 284 147 0
302 -310 284 147 0
302 310 -284 147 0
-302 -310 -284 147 0
302 310 284 -147 0
-302 -310 284 -147 0
-302 310 -284 -147 0
302 -310 -284 -147 0
-311 284 147 310 0
-311 -284 147 310 0
-311 284 -147 310 0
311 -284 -147 310 0
-311 284 147 -310 0
311 -284 147 -310 0
311 284 -147 -310 0
311 -284 -147 -310 0
-303 311 285 148 0
303 -311 285 148 0
303 311 -285 148 0
-303 -311 -285 148 0
303 311 285 -148 0
-303 -311 285 -148 0
-303 311 -285 -148 0
303 -311 -285 -148 0
-312 285 148 311 0
-312 -285 148 311 0
-312 285 -148 311 0
312 -285 -148 311 0
-312 285 148 -311 0
312 -285 148 -311 0
312 285 -148 -311 0
312 -285 -148 -311 0
-304 312 286 149 0
304 -312 286 149 0
304 312 -286 149 0
-304 -312 -286 149 0
304 312 286 -149 0
-304 -312 286 -149 0
-304 312 -286 -149 0
304 -312 -286 -149 0
-313 286 149 312 0
-313 -286 149 312 0
-313 286 -149 312 0
313 -286 -149 312 0
-313 286 149 -312 0
313 -286 149 -312 0
313 286 -149 -312 0
313 -286 -149 -312 0
-305 313 287 150 0
305 -313 287 150 0
305 313 -287 150 0
-305 -313 -287 150 0
305 313 287 -150 0
-305 -313 287 -150 0
-305 313 -287 -150 0
305 -313 -287 -150 0
-314 287 150 313 0
-314 -287 150 313 0
-314 287 -150 313 0
314 -287 -150 313 0
-314 287 150 -313 0
314 -287 150 -313 0
314 287 -150 -313 0
314 -287 -150 -313 0
-306 314 288 151 0
306 -314 288 151 0
306 314 -288 151 0
-306 -314 -288 151 0
306 314 288 -151 0
-306 -314 288 -151 0
-306 314 -288 -151 0
306 -314 -288 -151 0
-315 288 151 314 0
-315 -288 151 314 0
-315 288 -151 314 0
315 -288 -151 314 0
-315 288 151 -314 0
315 -288 151 -314 0
315 288 -151 -314 0
315 -288 -151 -314 0
-307 315 289 152 0
307 -315 289 152 0
307 315 -289 152 0
-307 -315 -289 152 0
307 315 289 -152 0
-307 -315 289 -152 0
-307 315 -289 -152 0
307 -315 -289 -152 0
-316 289 152 315 0
-316 -289 152 315 0
-316 289 -152 315 0
316 -289 -152 315 0
-316 289 152 -315 0
316 -289 152 -315 0
316 289 -152 -315 0
316 -289 -152 -315 0
-308 316 290 0
308 -316 290 0
308 316 -290 0
-308 -316 -290 0
-317 316 290 0
-317 -316 290 0
-317 316 -290 0
317 -316 -290 0
-309 317 291 0
309 -317 291 0
309 317 -291 0
-309 -317 -291 0
-318 317 291 0
-318 -317 291 0
-318 317 -291 0
318 -317 -291 0
-319 301 153 0
319 -301 153 0
319 301 -153 0
-319 -301 -153 0
-329 301 153 0
-329 -301 153 0
-329 301 -153 0
329 -301 -153 0
-320 329 302 154 0
320 -329 302 154 0
320 329 -302 154 0
-320 -329 -302 154 0
320 329 302 -154 0
-320 -329 302 -154 0
-320 329 -302 -154 0
320 -329 -302 -154 0
-330 302 154 329 0
-330 -302 154 329 0
-330 302 -154 329 0
330 -302 -154 329 0
-330 302 154 -329 0
330 -302 154 -329 0
330 302 -154 -329 0
330 -302 -154 -329 0
-321 330 303 155 0
321 -330 303 155 0
321 330 -303 155 0
-321 -330 -303 155 0
321 330 303 -155 0
-321 -330 303 -155 0
-321 330 -303 -155 0
321 -330 -303 -155 0
-331 303 155 330 0
-331 -303 155 330 0
-331 303 -155 330 0
331 -303 -155 330 0
-331 303 155 -330 0
331 -303 155 -330 0
331 303 -155 -330 0
331 -303 -155 -330 0
-322 331 304 156 0
322 -331 304 156 0
322 331 -304 156 0
-322 -331 -304 156 0
322 331 304 -156 0
-322 -331 304 -156 0
-322 331 -304 -156 0
322 -331 -304 -156 0
-332 304 156 331 0
-332 -304 156 331 0
-332 304 -156 331 0
332 -304 -156 331 0
-332 304 156 -331 0
332 -304 156 -331 0
332 304 -156 -331 0
332 -304 -156 -331 0
-323 332 305 157 0
323 -332 305 157 0
323 332 -305 157 0
-323 -332 -305 157 0
323 332 305 -157 0
-323 -332 305 -157 0
-323 332 -305 -157 0
323 -332 -305 -157 0
-333 305 157 332 0
-333 -305 157 332 0
-333 305 -157 332 0
333 -305 -157 332 0
-333 305 157 -332 0
333 -305 157 -332 0
333 305 -157 -332 0
333 -305 -157 -332 0
-324 333 306 158 0
324 -333 306 158 0
324 333 -306 158 0
-324 -333 -306 158 0
324 333 306 -158 0
-324 -333 306 -158 0
-324 333 -306 -158 0
324 -333 -306 -158 0
-334 306 158 333 0
-334 -306 158 333 0
-334 306 -158 333 0
334 -306 -158 333 0
-334 306 158 -333 0
334 -306 158 -333 0
334 306 -158 -333 0
334 -306 -158 -333 0
-325 334 307 159 0
325 -334 307 159 0
325 334 -307 159 0
-325 -334 -307 159 0
325 334 307 -159 0
-325 -334 307 -159 0
-325 334 -307 -159 0
325 -334 -307 -159 0
-335 307 159 334 0
-335 -307 159 334 0
-335 307 -159 334 0
335 -307 -159 334 0
-335 307 159 -334 0
335 -307 159 -334 0
335 307 -159 -334 0
335 -307 -159 -334 0
-326 335 308 0
326 -335 308 0
326 335 -308 0
-326 -335 -308 0
-336 335 308 0
-336 -335 308 0
-336 335 -308 0
336 -335 -308 0
-327 336 309 0
327 -336 309 0
327 336 -309 0
-327 -336 -309 0
-337 336 309 0
-337 -336 309 0
-337 336 -309 0
337 -336 -309 0
-328 337 0
328 -337 0
-319 0
320 0
-321 0
322 0
323 0
-324 0
325 0
-326 0
-327 0
-328 0